200 4970
0 2
0 4
0 8
0 12
0 17
0 18
0 27
0 35
0 48
0 54
0 55
0 63
0 65
0 70
0 72
0 75
0 80
0 84
0 85
0 87
0 88
0 90
0 100
0 101
0 108
0 112
0 113
0 118
0 120
0 129
0 130
0 131
0 137
0 138
0 141
0 143
0 145
0 147
0 154
0 155
0 156
0 157
0 158
0 160
0 162
0 165
0 166
0 174
0 179
0 180
0 182
0 187
0 196
0 199
1 2
1 10
1 11
1 13
1 14
1 16
1 17
1 20
1 26
1 28
1 30
1 37
1 41
1 43
1 44
1 50
1 60
1 64
1 66
1 74
1 75
1 76
1 82
1 87
1 90
1 97
1 99
1 100
1 105
1 106
1 109
1 111
1 117
1 120
1 130
1 135
1 147
1 153
1 161
1 164
1 165
1 168
1 177
1 179
1 180
1 187
1 194
1 196
1 197
1 198
2 3
2 11
2 12
2 13
2 16
2 22
2 30
2 33
2 34
2 36
2 43
2 47
2 51
2 56
2 57
2 61
2 66
2 70
2 74
2 76
2 79
2 81
2 84
2 89
2 93
2 95
2 96
2 99
2 103
2 111
2 115
2 116
2 118
2 119
2 123
2 131
2 133
2 139
2 141
2 147
2 149
2 152
2 160
2 163
2 173
2 182
2 183
2 190
2 192
2 197
3 7
3 8
3 9
3 11
3 16
3 21
3 22
3 27
3 31
3 38
3 39
3 42
3 44
3 47
3 50
3 56
3 60
3 61
3 63
3 65
3 68
3 72
3 73
3 76
3 77
3 78
3 85
3 91
3 94
3 96
3 99
3 100
3 101
3 118
3 126
3 132
3 134
3 141
3 143
3 148
3 151
3 156
3 168
3 172
3 174
3 175
3 179
3 182
3 189
3 196
4 7
4 11
4 19
4 21
4 44
4 45
4 49
4 55
4 56
4 57
4 64
4 65
4 66
4 82
4 87
4 103
4 105
4 106
4 108
4 113
4 117
4 120
4 137
4 140
4 142
4 143
4 144
4 148
4 151
4 156
4 165
4 166
4 167
4 169
4 170
4 172
4 178
4 179
4 183
4 186
4 187
4 189
4 192
4 195
5 10
5 22
5 23
5 25
5 40
5 44
5 50
5 54
5 57
5 64
5 66
5 67
5 72
5 74
5 75
5 77
5 78
5 79
5 85
5 91
5 99
5 101
5 105
5 110
5 117
5 118
5 128
5 137
5 143
5 148
5 153
5 158
5 159
5 165
5 166
5 167
5 169
5 170
5 174
5 182
5 184
5 185
5 186
5 187
5 189
5 190
5 191
5 192
5 199
6 8
6 17
6 29
6 30
6 31
6 34
6 37
6 40
6 47
6 48
6 49
6 55
6 56
6 61
6 64
6 70
6 74
6 76
6 78
6 89
6 101
6 103
6 110
6 112
6 116
6 118
6 120
6 124
6 126
6 127
6 129
6 130
6 139
6 145
6 149
6 158
6 160
6 164
6 166
6 171
6 176
6 179
6 181
6 182
6 183
6 184
6 185
6 191
6 194
6 197
7 10
7 14
7 29
7 31
7 39
7 40
7 41
7 47
7 48
7 52
7 53
7 54
7 59
7 60
7 63
7 65
7 74
7 76
7 82
7 91
7 100
7 108
7 114
7 117
7 120
7 121
7 124
7 126
7 135
7 138
7 139
7 141
7 144
7 145
7 152
7 159
7 161
7 168
7 179
7 180
7 181
7 182
7 183
7 184
7 187
7 192
7 194
7 196
7 197
7 198
7 199
8 9
8 19
8 31
8 32
8 33
8 46
8 48
8 50
8 52
8 53
8 65
8 66
8 70
8 76
8 78
8 82
8 84
8 86
8 91
8 98
8 102
8 113
8 114
8 116
8 118
8 127
8 133
8 137
8 143
8 148
8 151
8 153
8 159
8 166
8 168
8 174
8 194
8 195
8 198
8 199
9 14
9 15
9 16
9 22
9 24
9 30
9 36
9 37
9 39
9 41
9 47
9 55
9 59
9 61
9 62
9 64
9 66
9 81
9 82
9 83
9 85
9 88
9 91
9 96
9 97
9 98
9 107
9 114
9 121
9 128
9 132
9 133
9 137
9 147
9 148
9 149
9 154
9 155
9 158
9 163
9 166
9 173
9 176
9 179
9 182
9 186
9 189
9 190
9 192
9 199
10 17
10 32
10 33
10 41
10 46
10 51
10 57
10 59
10 62
10 63
10 71
10 74
10 76
10 79
10 80
10 82
10 88
10 89
10 94
10 95
10 100
10 117
10 124
10 126
10 133
10 135
10 136
10 137
10 138
10 142
10 144
10 157
10 159
10 160
10 172
10 178
10 182
10 183
10 190
10 191
10 194
10 196
11 22
11 26
11 27
11 29
11 33
11 35
11 38
11 51
11 60
11 70
11 74
11 75
11 81
11 83
11 91
11 100
11 105
11 106
11 116
11 125
11 127
11 135
11 139
11 145
11 147
11 153
11 156
11 159
11 169
11 172
11 173
11 175
11 177
11 178
11 180
11 182
11 187
11 191
11 192
11 195
11 197
12 23
12 25
12 27
12 37
12 43
12 49
12 52
12 60
12 61
12 62
12 63
12 68
12 69
12 71
12 72
12 78
12 79
12 81
12 84
12 87
12 89
12 93
12 98
12 101
12 102
12 121
12 124
12 129
12 131
12 133
12 137
12 139
12 140
12 144
12 146
12 148
12 152
12 164
12 170
12 177
12 181
12 188
12 189
12 190
12 197
13 19
13 38
13 39
13 42
13 52
13 53
13 56
13 58
13 70
13 71
13 72
13 73
13 74
13 75
13 77
13 80
13 82
13 94
13 98
13 111
13 113
13 115
13 120
13 129
13 138
13 143
13 158
13 159
13 166
13 169
13 170
13 171
13 174
13 175
13 179
13 182
13 191
13 197
13 198
14 28
14 30
14 31
14 32
14 33
14 37
14 38
14 43
14 45
14 47
14 48
14 54
14 55
14 56
14 58
14 59
14 60
14 61
14 67
14 69
14 75
14 77
14 78
14 79
14 82
14 88
14 94
14 103
14 105
14 111
14 119
14 133
14 134
14 136
14 138
14 139
14 140
14 142
14 145
14 148
14 154
14 156
14 160
14 164
14 166
14 168
14 170
14 190
14 197
14 198
15 17
15 19
15 21
15 34
15 35
15 36
15 39
15 43
15 56
15 60
15 62
15 70
15 71
15 75
15 77
15 78
15 84
15 85
15 92
15 94
15 96
15 97
15 103
15 108
15 113
15 122
15 129
15 130
15 132
15 134
15 135
15 137
15 141
15 143
15 144
15 164
15 166
15 168
15 172
15 173
15 174
15 175
15 176
15 177
15 186
15 189
15 190
15 195
16 19
16 22
16 24
16 28
16 29
16 43
16 48
16 50
16 56
16 57
16 59
16 60
16 62
16 63
16 65
16 72
16 74
16 75
16 76
16 77
16 79
16 81
16 83
16 87
16 89
16 91
16 93
16 98
16 102
16 106
16 107
16 108
16 109
16 112
16 113
16 115
16 116
16 126
16 131
16 132
16 135
16 142
16 147
16 152
16 154
16 155
16 157
16 166
16 168
16 180
16 181
16 183
16 187
16 191
16 195
16 196
17 18
17 21
17 23
17 33
17 35
17 38
17 41
17 54
17 55
17 59
17 73
17 74
17 76
17 77
17 78
17 79
17 84
17 86
17 98
17 99
17 101
17 106
17 113
17 116
17 119
17 123
17 132
17 139
17 140
17 142
17 143
17 148
17 152
17 157
17 158
17 160
17 161
17 167
17 170
17 183
17 186
17 193
17 197
18 19
18 21
18 26
18 27
18 39
18 41
18 44
18 46
18 56
18 60
18 68
18 70
18 71
18 81
18 82
18 91
18 99
18 106
18 114
18 121
18 125
18 127
18 129
18 132
18 134
18 140
18 150
18 154
18 156
18 164
18 179
18 183
18 185
18 188
18 189
18 191
18 192
18 197
19 20
19 21
19 25
19 34
19 36
19 38
19 39
19 41
19 44
19 47
19 51
19 53
19 66
19 68
19 78
19 87
19 90
19 104
19 105
19 111
19 114
19 115
19 116
19 119
19 122
19 131
19 135
19 138
19 139
19 140
19 144
19 147
19 148
19 151
19 158
19 162
19 166
19 169
19 170
19 171
19 176
19 178
19 179
19 188
19 193
19 195
19 196
19 199
20 21
20 25
20 27
20 31
20 37
20 43
20 44
20 45
20 50
20 51
20 53
20 55
20 67
20 68
20 69
20 70
20 73
20 81
20 82
20 83
20 84
20 85
20 90
20 91
20 92
20 93
20 97
20 100
20 103
20 106
20 107
20 112
20 113
20 117
20 120
20 124
20 130
20 131
20 132
20 144
20 145
20 148
20 160
20 162
20 163
20 164
20 168
20 169
20 172
20 177
20 179
20 185
20 187
20 189
20 194
21 23
21 26
21 32
21 36
21 37
21 38
21 49
21 52
21 54
21 57
21 61
21 65
21 67
21 71
21 72
21 78
21 79
21 80
21 81
21 82
21 84
21 91
21 102
21 103
21 109
21 110
21 113
21 114
21 118
21 120
21 123
21 126
21 127
21 131
21 137
21 139
21 142
21 149
21 159
21 161
21 162
21 166
21 170
21 171
21 173
21 182
21 185
21 188
21 192
22 25
22 26
22 29
22 31
22 36
22 49
22 54
22 56
22 60
22 63
22 64
22 67
22 71
22 78
22 81
22 82
22 86
22 88
22 91
22 93
22 98
22 99
22 102
22 106
22 109
22 112
22 115
22 123
22 126
22 128
22 129
22 130
22 135
22 144
22 148
22 152
22 153
22 157
22 166
22 169
22 175
22 176
22 177
22 180
22 181
22 183
22 187
22 191
22 197
22 198
23 26
23 36
23 38
23 40
23 42
23 43
23 47
23 48
23 49
23 54
23 55
23 60
23 62
23 64
23 79
23 82
23 89
23 90
23 92
23 98
23 99
23 102
23 109
23 117
23 126
23 129
23 130
23 132
23 134
23 137
23 138
23 141
23 145
23 147
23 151
23 154
23 156
23 159
23 163
23 164
23 165
23 176
23 179
23 182
23 185
23 186
23 188
23 193
23 194
23 196
23 198
23 199
24 26
24 32
24 35
24 41
24 42
24 43
24 55
24 56
24 58
24 60
24 70
24 79
24 85
24 93
24 95
24 104
24 105
24 106
24 108
24 118
24 128
24 137
24 141
24 142
24 143
24 145
24 162
24 176
24 185
24 187
24 189
24 190
24 191
24 193
24 197
25 28
25 30
25 36
25 42
25 55
25 57
25 60
25 62
25 66
25 74
25 75
25 79
25 80
25 84
25 87
25 88
25 91
25 96
25 104
25 119
25 124
25 126
25 129
25 131
25 136
25 138
25 139
25 144
25 147
25 150
25 151
25 153
25 167
25 169
25 170
25 172
25 179
25 186
25 187
25 189
25 191
26 55
26 58
26 60
26 61
26 65
26 68
26 70
26 73
26 78
26 80
26 90
26 93
26 98
26 107
26 109
26 110
26 112
26 120
26 122
26 123
26 140
26 147
26 154
26 157
26 160
26 161
26 167
26 171
26 174
26 175
26 177
26 180
26 185
26 186
26 187
26 191
27 28
27 29
27 32
27 34
27 40
27 41
27 46
27 50
27 52
27 53
27 56
27 65
27 72
27 74
27 75
27 77
27 78
27 85
27 90
27 92
27 98
27 103
27 104
27 108
27 112
27 126
27 128
27 130
27 135
27 142
27 146
27 148
27 149
27 153
27 154
27 162
27 163
27 166
27 169
27 171
27 175
27 176
27 177
27 178
27 183
27 193
27 195
27 199
28 32
28 46
28 47
28 49
28 50
28 55
28 57
28 65
28 70
28 71
28 72
28 73
28 74
28 93
28 97
28 100
28 106
28 110
28 112
28 116
28 121
28 124
28 127
28 132
28 133
28 136
28 140
28 141
28 147
28 151
28 152
28 160
28 161
28 164
28 165
28 168
28 173
28 175
28 177
28 183
28 185
28 189
28 199
29 35
29 45
29 53
29 56
29 58
29 59
29 60
29 63
29 64
29 73
29 75
29 78
29 81
29 82
29 93
29 97
29 100
29 103
29 109
29 110
29 113
29 118
29 121
29 126
29 131
29 138
29 141
29 142
29 147
29 148
29 150
29 157
29 159
29 162
29 163
29 166
29 169
29 174
29 197
30 40
30 46
30 50
30 55
30 64
30 73
30 76
30 82
30 87
30 90
30 94
30 95
30 100
30 104
30 106
30 107
30 115
30 118
30 123
30 126
30 127
30 129
30 134
30 135
30 140
30 143
30 150
30 158
30 161
30 162
30 168
30 169
30 177
30 179
30 183
30 190
30 193
31 48
31 57
31 68
31 69
31 74
31 79
31 84
31 85
31 89
31 90
31 92
31 98
31 102
31 103
31 104
31 106
31 108
31 112
31 115
31 116
31 118
31 123
31 125
31 130
31 139
31 141
31 143
31 146
31 156
31 171
31 173
31 177
31 185
31 187
31 196
31 197
31 199
32 46
32 48
32 50
32 52
32 58
32 59
32 69
32 79
32 80
32 81
32 83
32 84
32 87
32 92
32 97
32 98
32 114
32 120
32 122
32 126
32 127
32 128
32 129
32 130
32 137
32 142
32 143
32 146
32 151
32 158
32 162
32 168
32 169
32 170
32 171
32 181
32 188
32 193
32 197
33 36
33 37
33 41
33 43
33 44
33 46
33 47
33 49
33 52
33 53
33 59
33 60
33 67
33 69
33 70
33 71
33 74
33 77
33 79
33 80
33 81
33 85
33 86
33 87
33 90
33 92
33 109
33 111
33 112
33 118
33 121
33 122
33 140
33 143
33 150
33 151
33 157
33 160
33 161
33 163
33 164
33 168
33 174
33 179
33 181
33 188
33 189
34 36
34 43
34 45
34 48
34 49
34 51
34 62
34 63
34 67
34 72
34 82
34 88
34 92
34 94
34 95
34 96
34 97
34 98
34 99
34 101
34 107
34 111
34 113
34 126
34 127
34 128
34 138
34 139
34 145
34 148
34 149
34 153
34 157
34 163
34 165
34 168
34 171
34 175
34 187
34 190
34 197
34 199
35 36
35 37
35 42
35 43
35 46
35 49
35 53
35 58
35 59
35 62
35 66
35 70
35 73
35 74
35 75
35 78
35 83
35 88
35 99
35 101
35 103
35 110
35 111
35 118
35 128
35 129
35 132
35 134
35 140
35 141
35 147
35 150
35 156
35 168
35 180
35 194
36 42
36 51
36 54
36 59
36 61
36 64
36 67
36 68
36 69
36 74
36 77
36 78
36 81
36 94
36 99
36 104
36 114
36 120
36 121
36 122
36 123
36 126
36 131
36 132
36 136
36 137
36 139
36 143
36 145
36 152
36 153
36 155
36 158
36 159
36 160
36 168
36 170
36 174
36 178
36 179
36 186
36 198
37 40
37 43
37 44
37 45
37 47
37 50
37 52
37 56
37 60
37 68
37 69
37 70
37 71
37 82
37 83
37 85
37 87
37 90
37 91
37 92
37 93
37 95
37 96
37 99
37 100
37 103
37 104
37 105
37 111
37 125
37 137
37 139
37 153
37 157
37 159
37 164
37 169
37 177
37 180
37 186
37 187
37 189
37 190
37 191
37 195
37 197
38 41
38 45
38 46
38 48
38 54
38 58
38 59
38 62
38 63
38 66
38 67
38 68
38 71
38 73
38 79
38 86
38 89
38 96
38 104
38 107
38 120
38 121
38 124
38 125
38 129
38 130
38 135
38 138
38 142
38 145
38 146
38 147
38 149
38 150
38 151
38 154
38 155
38 159
38 160
38 163
38 167
38 168
38 172
38 175
38 177
38 179
38 185
38 186
38 197
39 42
39 47
39 49
39 54
39 56
39 58
39 61
39 67
39 69
39 70
39 74
39 80
39 82
39 87
39 94
39 96
39 97
39 100
39 101
39 103
39 108
39 112
39 123
39 127
39 128
39 130
39 131
39 135
39 141
39 145
39 146
39 149
39 153
39 156
39 164
39 165
39 170
39 181
39 185
39 187
39 188
39 190
39 191
39 192
40 42
40 53
40 54
40 59
40 60
40 61
40 62
40 67
40 72
40 79
40 81
40 83
40 84
40 88
40 89
40 91
40 94
40 95
40 98
40 104
40 107
40 120
40 127
40 128
40 132
40 133
40 137
40 140
40 143
40 144
40 153
40 154
40 156
40 158
40 164
40 168
40 178
40 182
40 184
40 185
40 188
40 189
40 198
40 199
41 42
41 48
41 49
41 57
41 60
41 66
41 69
41 72
41 84
41 86
41 87
41 89
41 92
41 104
41 106
41 107
41 108
41 111
41 116
41 119
41 120
41 121
41 124
41 128
41 130
41 134
41 138
41 139
41 141
41 142
41 143
41 147
41 150
41 151
41 159
41 161
41 162
41 168
41 171
41 173
41 174
41 177
41 190
41 192
41 193
41 196
41 199
42 43
42 45
42 49
42 55
42 56
42 72
42 74
42 75
42 81
42 82
42 85
42 90
42 91
42 94
42 100
42 105
42 107
42 108
42 111
42 114
42 129
42 131
42 134
42 136
42 143
42 149
42 156
42 162
42 163
42 172
42 174
42 180
42 188
42 190
43 44
43 45
43 47
43 49
43 50
43 54
43 59
43 76
43 77
43 80
43 81
43 82
43 91
43 94
43 95
43 96
43 97
43 99
43 100
43 103
43 105
43 110
43 115
43 116
43 117
43 123
43 124
43 125
43 126
43 127
43 130
43 134
43 138
43 140
43 153
43 159
43 163
43 165
43 168
43 173
43 177
43 186
43 191
43 193
43 196
44 45
44 46
44 48
44 53
44 54
44 61
44 66
44 67
44 70
44 74
44 78
44 83
44 92
44 93
44 103
44 114
44 116
44 126
44 128
44 132
44 137
44 144
44 145
44 148
44 150
44 151
44 152
44 153
44 155
44 156
44 159
44 164
44 177
44 178
44 180
44 184
44 185
44 187
44 190
44 191
44 196
45 54
45 55
45 61
45 62
45 63
45 75
45 90
45 97
45 98
45 100
45 121
45 123
45 128
45 129
45 134
45 136
45 140
45 141
45 142
45 144
45 149
45 152
45 159
45 161
45 166
45 175
45 178
45 182
45 183
45 190
45 195
45 199
46 48
46 49
46 54
46 55
46 58
46 60
46 61
46 62
46 67
46 69
46 70
46 72
46 73
46 75
46 80
46 85
46 89
46 94
46 95
46 99
46 101
46 103
46 108
46 110
46 115
46 118
46 124
46 127
46 143
46 146
46 147
46 151
46 156
46 160
46 162
46 165
46 170
46 173
46 175
46 178
46 193
46 196
46 198
47 52
47 56
47 57
47 60
47 61
47 63
47 66
47 69
47 74
47 81
47 88
47 92
47 100
47 104
47 111
47 115
47 117
47 120
47 124
47 126
47 129
47 138
47 142
47 149
47 154
47 155
47 160
47 175
47 176
47 178
47 183
47 192
47 194
47 196
47 199
48 61
48 64
48 68
48 69
48 73
48 75
48 84
48 87
48 88
48 91
48 94
48 99
48 101
48 103
48 104
48 110
48 118
48 122
48 124
48 131
48 144
48 146
48 148
48 157
48 164
48 165
48 173
48 185
48 192
48 194
48 195
48 199
49 50
49 63
49 96
49 102
49 106
49 114
49 119
49 125
49 128
49 130
49 134
49 141
49 143
49 145
49 147
49 169
49 172
49 177
49 178
49 179
49 182
49 184
49 185
49 186
49 187
49 188
50 51
50 55
50 57
50 67
50 68
50 69
50 74
50 80
50 81
50 87
50 90
50 92
50 93
50 95
50 101
50 118
50 120
50 122
50 123
50 127
50 134
50 135
50 142
50 147
50 149
50 158
50 161
50 162
50 163
50 165
50 166
50 167
50 172
50 173
50 176
50 180
50 181
50 183
50 190
50 193
50 194
51 56
51 57
51 58
51 64
51 72
51 74
51 81
51 82
51 85
51 96
51 98
51 112
51 113
51 119
51 120
51 122
51 127
51 132
51 133
51 136
51 138
51 139
51 140
51 141
51 143
51 144
51 146
51 170
51 173
51 175
51 176
51 188
51 189
51 196
51 199
52 53
52 57
52 65
52 68
52 70
52 71
52 73
52 74
52 75
52 88
52 89
52 93
52 102
52 104
52 105
52 107
52 109
52 110
52 113
52 115
52 118
52 123
52 124
52 128
52 134
52 138
52 140
52 143
52 153
52 156
52 157
52 158
52 160
52 162
52 165
52 170
52 175
52 177
52 178
52 182
52 184
52 187
52 188
52 189
52 190
52 191
52 198
52 199
53 54
53 57
53 58
53 61
53 73
53 80
53 88
53 90
53 92
53 93
53 95
53 101
53 102
53 104
53 106
53 107
53 109
53 110
53 113
53 118
53 127
53 130
53 134
53 140
53 141
53 156
53 163
53 165
53 166
53 168
53 169
53 171
53 172
53 197
53 199
54 58
54 61
54 63
54 71
54 75
54 76
54 82
54 86
54 88
54 91
54 101
54 107
54 108
54 110
54 112
54 121
54 126
54 127
54 128
54 133
54 136
54 139
54 140
54 141
54 146
54 148
54 150
54 157
54 158
54 160
54 161
54 163
54 167
54 168
54 170
54 171
54 174
54 175
54 180
54 184
54 186
54 187
54 198
55 56
55 59
55 60
55 61
55 67
55 69
55 72
55 75
55 77
55 81
55 84
55 98
55 104
55 105
55 112
55 113
55 119
55 121
55 126
55 129
55 130
55 131
55 133
55 134
55 135
55 138
55 139
55 149
55 151
55 155
55 159
55 165
55 167
55 170
55 177
55 179
55 189
55 196
56 57
56 59
56 63
56 65
56 73
56 75
56 79
56 83
56 87
56 90
56 112
56 116
56 123
56 125
56 132
56 133
56 136
56 138
56 150
56 159
56 166
56 168
56 169
56 174
56 176
56 177
56 190
56 197
57 58
57 70
57 74
57 79
57 90
57 93
57 97
57 99
57 106
57 110
57 111
57 131
57 134
57 142
57 143
57 148
57 149
57 153
57 155
57 157
57 163
57 166
57 169
57 171
57 177
57 183
57 184
57 185
57 187
57 189
57 193
57 196
58 59
58 62
58 65
58 66
58 71
58 75
58 77
58 78
58 80
58 84
58 86
58 87
58 94
58 96
58 99
58 101
58 105
58 113
58 114
58 121
58 124
58 128
58 140
58 142
58 152
58 154
58 160
58 164
58 167
58 171
58 173
58 177
58 179
58 183
58 186
58 195
58 198
59 66
59 71
59 77
59 78
59 80
59 84
59 88
59 95
59 98
59 102
59 103
59 105
59 111
59 112
59 114
59 117
59 120
59 124
59 126
59 128
59 134
59 135
59 136
59 140
59 149
59 154
59 163
59 165
59 167
59 168
59 169
59 171
59 184
59 188
59 194
59 198
60 65
60 70
60 74
60 87
60 95
60 99
60 101
60 102
60 103
60 110
60 118
60 121
60 122
60 126
60 128
60 131
60 139
60 146
60 152
60 154
60 157
60 168
60 171
60 173
60 175
60 177
60 179
60 182
60 187
60 195
61 65
61 85
61 88
61 93
61 95
61 104
61 105
61 122
61 123
61 126
61 134
61 136
61 141
61 142
61 143
61 145
61 146
61 152
61 153
61 154
61 166
61 171
61 175
61 176
61 180
61 186
61 190
61 194
61 197
62 65
62 67
62 68
62 71
62 72
62 80
62 86
62 101
62 104
62 109
62 111
62 113
62 116
62 121
62 122
62 123
62 135
62 137
62 141
62 143
62 149
62 161
62 163
62 165
62 167
62 172
62 175
62 179
62 185
62 190
62 192
62 194
63 64
63 67
63 69
63 72
63 79
63 82
63 89
63 94
63 99
63 105
63 106
63 110
63 116
63 121
63 124
63 127
63 134
63 135
63 137
63 141
63 147
63 160
63 161
63 163
63 175
63 179
63 182
63 185
63 186
63 197
63 198
64 75
64 82
64 85
64 88
64 93
64 96
64 98
64 105
64 113
64 117
64 121
64 122
64 124
64 129
64 134
64 135
64 147
64 149
64 154
64 155
64 161
64 164
64 172
64 180
64 181
64 183
64 187
64 189
64 191
64 192
64 195
64 196
64 198
65 66
65 68
65 72
65 73
65 74
65 75
65 79
65 85
65 86
65 91
65 92
65 94
65 104
65 106
65 109
65 113
65 115
65 119
65 128
65 132
65 138
65 140
65 146
65 147
65 171
65 179
65 185
65 186
66 70
66 72
66 75
66 79
66 89
66 92
66 98
66 102
66 104
66 106
66 113
66 118
66 124
66 126
66 127
66 134
66 136
66 142
66 143
66 155
66 161
66 167
66 169
66 171
66 174
66 178
66 182
66 184
66 188
66 191
66 194
66 196
67 72
67 76
67 77
67 88
67 92
67 94
67 96
67 99
67 111
67 122
67 128
67 131
67 134
67 138
67 142
67 147
67 148
67 150
67 157
67 173
67 177
67 180
67 185
67 186
67 187
67 189
67 192
67 194
67 196
67 197
68 76
68 78
68 79
68 83
68 84
68 85
68 86
68 91
68 93
68 95
68 96
68 98
68 100
68 102
68 106
68 108
68 114
68 116
68 117
68 120
68 122
68 130
68 132
68 135
68 141
68 142
68 143
68 149
68 150
68 151
68 152
68 154
68 164
68 168
68 169
68 171
68 174
68 177
68 178
68 179
68 188
68 189
68 194
68 195
69 74
69 77
69 78
69 99
69 104
69 109
69 123
69 128
69 138
69 139
69 145
69 146
69 148
69 155
69 158
69 159
69 162
69 167
69 180
69 192
69 195
69 198
70 71
70 72
70 74
70 77
70 94
70 97
70 101
70 108
70 109
70 111
70 113
70 116
70 118
70 125
70 129
70 130
70 132
70 138
70 145
70 148
70 153
70 156
70 158
70 164
70 169
70 171
70 177
70 179
70 181
70 190
70 191
70 198
71 72
71 79
71 80
71 82
71 83
71 87
71 94
71 96
71 98
71 101
71 103
71 107
71 110
71 115
71 116
71 120
71 122
71 127
71 133
71 139
71 143
71 144
71 145
71 149
71 150
71 155
71 160
71 165
71 167
71 168
71 174
71 177
71 184
71 192
71 194
71 195
72 74
72 75
72 76
72 78
72 81
72 85
72 93
72 99
72 100
72 112
72 118
72 120
72 124
72 127
72 129
72 136
72 143
72 144
72 147
72 150
72 155
72 159
72 165
72 167
72 169
72 177
72 182
72 191
72 195
72 197
73 74
73 81
73 83
73 92
73 94
73 97
73 101
73 104
73 105
73 107
73 108
73 109
73 113
73 114
73 117
73 120
73 125
73 129
73 136
73 139
73 146
73 148
73 149
73 150
73 156
73 157
73 159
73 161
73 162
73 167
73 171
73 172
73 173
73 176
73 178
73 183
73 185
73 191
73 198
74 80
74 84
74 87
74 91
74 95
74 98
74 103
74 104
74 107
74 112
74 116
74 123
74 127
74 128
74 129
74 134
74 135
74 137
74 142
74 149
74 154
74 172
74 180
74 184
74 199
75 76
75 86
75 87
75 88
75 93
75 96
75 97
75 98
75 100
75 101
75 113
75 118
75 138
75 141
75 151
75 158
75 161
75 162
75 165
75 166
75 169
75 171
75 178
75 190
75 191
75 195
76 79
76 80
76 81
76 94
76 102
76 105
76 107
76 108
76 113
76 114
76 116
76 120
76 123
76 131
76 136
76 138
76 139
76 141
76 142
76 143
76 144
76 145
76 146
76 148
76 155
76 162
76 164
76 166
76 168
76 169
76 176
76 178
76 181
76 184
76 185
76 199
77 78
77 80
77 83
77 90
77 94
77 98
77 107
77 110
77 112
77 116
77 118
77 120
77 121
77 123
77 125
77 127
77 132
77 135
77 136
77 140
77 144
77 149
77 151
77 156
77 157
77 160
77 161
77 163
77 165
77 178
77 186
77 189
77 190
77 193
77 197
77 198
78 79
78 85
78 87
78 89
78 95
78 96
78 98
78 99
78 109
78 110
78 112
78 113
78 114
78 115
78 119
78 121
78 125
78 134
78 153
78 161
78 162
78 168
78 172
78 179
78 181
78 182
78 186
78 188
78 189
78 191
78 193
78 194
78 198
79 80
79 83
79 90
79 91
79 96
79 98
79 100
79 109
79 113
79 117
79 123
79 127
79 128
79 133
79 144
79 150
79 155
79 158
79 159
79 177
79 179
79 183
79 186
79 189
79 194
79 199
80 83
80 84
80 85
80 90
80 95
80 98
80 107
80 112
80 115
80 117
80 122
80 129
80 131
80 138
80 142
80 145
80 147
80 149
80 151
80 154
80 161
80 170
80 174
80 185
80 187
80 188
80 199
81 83
81 84
81 85
81 91
81 95
81 101
81 105
81 113
81 119
81 120
81 123
81 126
81 133
81 135
81 143
81 147
81 165
81 169
81 173
81 183
81 188
81 191
81 196
81 199
82 83
82 92
82 94
82 96
82 100
82 101
82 109
82 120
82 127
82 130
82 137
82 140
82 143
82 145
82 147
82 152
82 158
82 160
82 163
82 172
82 173
82 180
82 181
82 184
82 186
82 189
82 190
82 193
82 194
82 195
83 85
83 87
83 88
83 91
83 95
83 99
83 104
83 111
83 120
83 121
83 123
83 131
83 140
83 141
83 143
83 150
83 155
83 156
83 159
83 173
83 185
83 186
83 187
83 192
83 193
83 194
83 196
84 89
84 90
84 91
84 93
84 95
84 100
84 102
84 105
84 120
84 128
84 134
84 146
84 147
84 149
84 151
84 152
84 157
84 161
84 169
84 170
84 177
84 180
84 183
84 191
84 197
85 86
85 90
85 95
85 96
85 100
85 103
85 107
85 108
85 111
85 112
85 114
85 120
85 131
85 136
85 139
85 142
85 143
85 145
85 146
85 150
85 158
85 159
85 172
85 174
85 175
85 181
85 182
85 183
85 187
85 188
85 193
85 196
85 199
86 95
86 96
86 124
86 126
86 127
86 131
86 133
86 134
86 140
86 149
86 150
86 159
86 161
86 163
86 166
86 171
86 172
86 176
86 179
86 182
86 187
86 197
87 88
87 91
87 92
87 93
87 95
87 96
87 101
87 102
87 105
87 107
87 113
87 117
87 121
87 129
87 137
87 148
87 150
87 154
87 155
87 161
87 165
87 172
87 173
87 180
87 183
87 185
87 194
87 195
87 197
87 198
88 91
88 95
88 100
88 105
88 108
88 111
88 118
88 119
88 120
88 121
88 125
88 126
88 127
88 132
88 133
88 134
88 135
88 137
88 138
88 139
88 142
88 144
88 150
88 152
88 155
88 156
88 162
88 163
88 164
88 165
88 167
88 175
88 179
88 184
88 188
88 190
89 92
89 97
89 99
89 102
89 103
89 104
89 105
89 106
89 117
89 124
89 132
89 150
89 152
89 154
89 156
89 158
89 160
89 172
89 175
89 180
89 181
89 188
89 199
90 91
90 96
90 97
90 108
90 110
90 113
90 131
90 133
90 137
90 139
90 144
90 149
90 151
90 155
90 160
90 171
90 176
90 190
91 92
91 108
91 109
91 110
91 115
91 116
91 117
91 120
91 126
91 127
91 129
91 134
91 137
91 143
91 145
91 146
91 161
91 162
91 163
91 176
91 180
91 182
91 186
91 192
91 195
91 197
92 103
92 104
92 109
92 117
92 118
92 126
92 131
92 134
92 135
92 139
92 142
92 144
92 147
92 148
92 153
92 160
92 164
92 165
92 173
92 179
92 186
92 189
92 194
92 195
93 94
93 97
93 98
93 105
93 114
93 119
93 131
93 132
93 145
93 147
93 152
93 162
93 164
93 170
93 171
93 175
93 176
93 182
93 183
93 184
93 187
93 188
93 190
93 194
93 199
94 98
94 100
94 105
94 112
94 115
94 117
94 120
94 123
94 125
94 127
94 128
94 134
94 135
94 138
94 141
94 142
94 143
94 152
94 162
94 163
94 164
94 169
94 174
94 180
94 184
94 187
94 188
94 192
94 197
95 98
95 108
95 109
95 110
95 114
95 125
95 127
95 128
95 131
95 135
95 137
95 139
95 141
95 143
95 144
95 147
95 159
95 160
95 163
95 166
95 174
95 188
95 189
95 193
95 195
96 99
96 102
96 104
96 106
96 114
96 118
96 120
96 127
96 128
96 129
96 130
96 134
96 135
96 145
96 148
96 151
96 155
96 160
96 167
96 171
96 173
96 175
96 182
96 185
96 196
97 113
97 118
97 124
97 127
97 131
97 133
97 137
97 138
97 142
97 144
97 147
97 152
97 153
97 157
97 160
97 165
97 168
97 170
97 175
97 176
97 185
97 188
97 197
97 199
98 99
98 100
98 107
98 108
98 114
98 116
98 117
98 122
98 124
98 130
98 132
98 137
98 141
98 142
98 143
98 148
98 151
98 155
98 156
98 157
98 162
98 167
98 172
98 173
98 184
98 187
98 188
98 189
98 193
98 196
99 101
99 103
99 113
99 115
99 117
99 124
99 129
99 132
99 134
99 136
99 143
99 146
99 150
99 151
99 163
99 164
99 175
99 180
99 188
99 189
99 196
100 102
100 106
100 110
100 113
100 115
100 117
100 122
100 126
100 129
100 130
100 139
100 141
100 146
100 149
100 153
100 155
100 158
100 161
100 162
100 164
100 166
100 168
100 172
100 174
100 187
100 190
100 191
101 102
101 108
101 110
101 121
101 123
101 125
101 129
101 136
101 137
101 138
101 140
101 142
101 143
101 144
101 146
101 148
101 150
101 160
101 161
101 163
101 165
101 170
101 178
101 180
101 183
101 186
101 188
101 195
102 104
102 106
102 117
102 120
102 123
102 126
102 128
102 129
102 135
102 146
102 147
102 149
102 153
102 155
102 157
102 160
102 162
102 165
102 177
102 187
102 188
102 189
102 191
102 192
102 199
103 106
103 114
103 116
103 118
103 121
103 126
103 128
103 131
103 135
103 136
103 138
103 139
103 142
103 149
103 153
103 154
103 157
103 159
103 167
103 170
103 180
103 182
103 184
103 185
103 187
103 190
103 191
103 197
103 198
104 109
104 115
104 121
104 134
104 141
104 143
104 155
104 156
104 165
104 166
104 169
104 170
104 175
104 176
104 178
104 180
104 183
104 191
104 195
105 108
105 114
105 115
105 119
105 124
105 128
105 129
105 132
105 136
105 147
105 158
105 163
105 165
105 170
105 171
105 173
105 174
105 179
105 180
105 181
105 182
105 184
105 187
105 197
106 108
106 110
106 129
106 131
106 134
106 135
106 137
106 144
106 155
106 157
106 158
106 161
106 165
106 166
106 169
106 172
106 179
106 180
106 187
106 188
106 189
106 191
106 193
106 198
107 113
107 119
107 120
107 121
107 123
107 130
107 132
107 135
107 143
107 149
107 152
107 155
107 157
107 163
107 167
107 179
107 184
107 187
107 196
108 113
108 114
108 115
108 116
108 118
108 125
108 126
108 131
108 133
108 144
108 150
108 151
108 152
108 154
108 163
108 176
108 179
108 186
108 189
108 195
109 111
109 118
109 123
109 125
109 131
109 132
109 149
109 174
109 177
109 184
109 189
109 192
109 198
110 111
110 113
110 118
110 127
110 129
110 135
110 139
110 140
110 145
110 149
110 152
110 154
110 156
110 158
110 162
110 164
110 165
110 167
110 171
110 179
110 183
110 186
110 187
110 188
111 112
111 115
111 121
111 124
111 130
111 147
111 148
111 150
111 153
111 155
111 156
111 158
111 161
111 164
111 167
111 168
111 169
111 173
111 176
111 177
111 178
111 179
111 185
111 187
111 189
111 198
112 116
112 117
112 129
112 136
112 137
112 153
112 154
112 165
112 169
112 172
112 174
112 178
112 180
112 187
112 189
112 190
112 194
112 195
113 114
113 117
113 121
113 130
113 133
113 135
113 138
113 139
113 146
113 147
113 149
113 150
113 156
113 163
113 166
113 175
113 177
113 184
113 185
113 191
113 196
114 116
114 119
114 121
114 125
114 127
114 129
114 134
114 136
114 139
114 162
114 163
114 174
114 181
114 191
114 196
114 199
115 122
115 126
115 127
115 128
115 139
115 151
115 155
115 156
115 158
115 164
115 165
115 171
115 172
115 180
115 181
115 186
115 191
115 197
115 198
115 199
116 117
116 118
116 122
116 123
116 134
116 141
116 142
116 146
116 150
116 153
116 159
116 160
116 167
116 168
116 174
116 183
116 194
116 195
117 119
117 122
117 126
117 127
117 128
117 131
117 133
117 145
117 147
117 154
117 155
117 158
117 165
117 167
117 174
117 180
117 185
117 187
117 188
117 196
118 130
118 137
118 142
118 144
118 146
118 147
118 151
118 155
118 163
118 165
118 170
118 171
118 174
118 178
118 179
118 182
118 188
118 194
118 195
118 198
118 199
119 121
119 125
119 126
119 127
119 131
119 134
119 136
119 138
119 139
119 141
119 149
119 154
119 155
119 158
119 161
119 162
119 168
119 175
119 176
119 191
119 193
119 195
119 197
119 198
120 131
120 136
120 139
120 140
120 143
120 145
120 147
120 148
120 149
120 150
120 151
120 159
120 164
120 166
120 169
120 173
120 174
120 175
120 178
120 183
120 190
120 192
120 199
121 122
121 130
121 132
121 135
121 139
121 142
121 148
121 149
121 160
121 162
121 163
121 168
121 173
121 178
121 179
121 180
121 183
121 184
121 187
121 189
121 195
121 199
122 123
122 127
122 129
122 134
122 142
122 147
122 148
122 150
122 152
122 153
122 157
122 160
122 174
122 180
122 181
122 183
122 186
122 190
122 191
122 199
123 127
123 132
123 134
123 137
123 142
123 143
123 144
123 145
123 152
123 159
123 161
123 162
123 165
123 168
123 175
123 177
123 179
123 180
123 182
124 144
124 145
124 150
124 152
124 154
124 156
124 157
124 160
124 161
124 162
124 169
124 170
124 171
124 174
124 177
124 180
124 184
124 189
124 194
124 197
125 135
125 138
125 147
125 150
125 154
125 155
125 156
125 159
125 163
125 168
125 171
125 179
125 182
125 185
125 187
125 193
125 194
125 195
125 196
125 197
126 134
126 135
126 138
126 145
126 146
126 147
126 148
126 151
126 153
126 154
126 157
126 166
126 167
126 169
126 173
126 188
126 192
126 199
127 129
127 130
127 132
127 135
127 136
127 137
127 138
127 139
127 145
127 150
127 153
127 154
127 157
127 160
127 162
127 169
127 170
127 174
127 183
127 191
127 194
127 195
127 199
128 135
128 137
128 141
128 144
128 161
128 165
128 167
128 169
128 177
128 178
128 188
128 189
128 197
128 198
129 130
129 138
129 139
129 141
129 151
129 160
129 162
129 166
129 169
129 173
129 174
129 179
129 180
129 184
129 185
129 191
129 194
130 131
130 132
130 138
130 139
130 142
130 143
130 151
130 154
130 155
130 157
130 178
130 182
130 187
130 193
130 195
130 198
130 199
131 133
131 140
131 141
131 144
131 147
131 154
131 155
131 161
131 173
131 182
131 183
131 184
131 187
131 188
131 189
131 190
131 192
131 196
131 199
132 134
132 138
132 145
132 155
132 162
132 163
132 166
132 170
132 171
132 175
132 184
132 185
132 193
132 197
133 137
133 138
133 158
133 176
133 178
133 179
133 180
133 182
133 183
133 184
133 191
133 195
134 137
134 147
134 148
134 152
134 158
134 165
134 169
134 170
134 181
134 189
134 198
135 140
135 141
135 147
135 149
135 152
135 159
135 162
135 165
135 174
135 176
135 179
135 183
135 185
135 187
135 196
136 137
136 138
136 141
136 142
136 144
136 145
136 150
136 158
136 164
136 168
136 176
136 178
136 181
136 182
136 185
136 187
136 192
136 193
136 194
136 195
136 196
136 198
137 138
137 143
137 146
137 151
137 156
137 158
137 164
137 167
137 168
137 171
137 176
137 183
137 189
137 195
137 198
138 141
138 145
138 152
138 155
138 158
138 160
138 162
138 172
138 176
138 177
138 178
138 185
138 187
138 193
138 198
138 199
139 140
139 142
139 143
139 156
139 157
139 158
139 163
139 168
139 170
139 171
139 172
139 173
139 174
139 175
139 186
139 188
139 189
139 191
139 193
139 197
140 145
140 147
140 151
140 152
140 161
140 163
140 166
140 168
140 171
140 172
140 173
140 176
140 180
140 182
140 190
140 192
140 193
140 194
140 197
140 198
141 143
141 149
141 150
141 172
141 173
141 176
141 177
141 180
141 183
141 184
141 188
141 189
141 199
142 150
142 151
142 157
142 160
142 164
142 166
142 167
142 170
142 173
142 176
142 183
142 184
142 199
143 155
143 157
143 158
143 159
143 163
143 165
143 178
143 179
143 183
143 189
143 194
144 152
144 154
144 159
144 161
144 168
144 171
144 173
144 174
144 176
144 181
144 185
144 195
144 196
144 199
145 150
145 151
145 154
145 157
145 158
145 167
145 168
145 171
145 175
145 176
145 177
145 179
145 182
145 186
145 187
145 192
145 198
146 147
146 159
146 162
146 172
146 175
146 179
146 186
146 189
146 192
147 152
147 153
147 155
147 159
147 169
147 170
147 172
147 176
147 177
147 182
147 185
147 186
147 188
147 190
147 193
148 153
148 155
148 156
148 157
148 161
148 163
148 165
148 167
148 178
148 179
148 182
148 193
148 198
149 152
149 161
149 164
149 169
149 170
149 174
149 175
149 178
149 180
149 183
149 185
149 186
149 189
149 194
149 196
149 198
150 156
150 158
150 160
150 162
150 163
150 164
150 168
150 169
150 170
150 173
150 175
150 181
150 184
150 185
150 190
150 191
150 194
150 196
151 161
151 164
151 167
151 170
151 171
151 173
151 176
151 183
151 187
151 190
151 196
151 199
152 154
152 157
152 158
152 160
152 162
152 165
152 166
152 171
152 176
152 178
152 183
152 185
152 191
152 199
153 154
153 156
153 159
153 160
153 163
153 164
153 171
153 173
153 180
153 181
153 188
153 195
153 197
153 198
154 157
154 163
154 166
154 167
154 171
154 174
154 179
154 181
154 185
154 186
154 188
154 190
154 192
154 196
154 197
154 198
155 157
155 161
155 170
155 171
155 175
155 179
155 189
155 191
155 192
155 193
155 196
156 157
156 167
156 171
156 174
156 175
156 186
156 187
156 195
156 196
156 199
157 166
157 175
157 180
157 182
157 185
158 165
158 171
158 177
158 178
158 183
158 184
158 186
158 188
158 189
158 190
158 194
158 198
159 164
159 166
159 168
159 169
159 172
159 178
159 179
159 189
159 191
159 192
159 194
159 196
159 199
160 163
160 164
160 166
160 168
160 171
160 174
160 184
160 186
160 191
161 163
161 164
161 165
161 168
161 170
161 177
161 186
161 192
161 193
162 164
162 165
162 167
162 169
162 173
162 174
162 180
162 184
162 189
162 193
162 195
162 196
162 198
163 165
163 176
163 177
163 179
163 199
164 172
164 173
164 179
164 182
164 183
164 184
164 188
164 189
165 166
165 172
165 177
165 178
165 181
165 183
165 192
165 193
166 169
166 170
166 174
166 184
166 186
166 188
166 195
166 196
166 197
167 169
167 171
167 173
167 174
167 175
167 177
167 183
167 185
167 186
167 189
167 193
167 196
168 176
168 177
168 191
168 193
169 175
169 180
169 183
169 184
169 187
169 188
169 190
169 191
169 196
170 173
170 184
170 186
170 187
170 188
170 192
170 193
170 196
170 198
171 172
171 176
171 177
171 178
171 186
171 187
171 188
171 193
171 195
171 198
172 173
172 177
172 178
172 179
172 181
172 185
172 191
172 199
173 189
173 194
174 179
174 182
174 184
174 185
174 188
174 198
175 180
175 182
175 185
175 189
175 193
175 195
176 181
176 187
176 189
176 190
176 191
176 192
176 193
176 194
176 196
176 197
177 180
177 181
177 183
177 188
177 197
177 198
177 199
178 186
178 190
178 192
178 194
178 195
179 182
179 184
179 185
179 186
179 187
179 188
179 198
180 183
180 184
180 185
180 187
180 188
180 190
180 192
180 195
181 182
181 190
181 193
181 195
181 196
181 199
182 192
183 186
183 198
183 199
184 188
184 193
184 194
185 190
185 195
185 199
186 190
186 192
186 193
186 195
187 192
187 194
188 189
189 198
190 192
190 197
190 198
191 197
191 198
191 199
192 196
192 198
193 197
193 199
196 198
196 199
